echo            screen
variable        dcdfreq index 1000
variable        inputname  index step6.7_equilibration
variable        outputname index umbrella_sampling
variable k equal 7 # Kcal/mol/Angstrom^2

units           real
boundary        p p p

newton          off
pair_style      lj/charmm/coul/long 10 12
pair_modify     mix arithmetic
kspace_style    pppm 1e-6

atom_style      full
bond_style      harmonic
angle_style     charmm
dihedral_style  charmm
improper_style  harmonic
special_bonds   charmm
timestep        1.0

read_data       DPPC_CO2.data
variable        laststep file ${inputname}.dump
next            laststep
read_dump       ${inputname}.dump ${laststep}  x y z vx vy vz ix iy iz box yes replace yes format native

neighbor        2 bin
neigh_modify    delay 5 every 1


group co2 type 18 19
group system type 1 2 3 4 5 6 7 8 9 10 11 12 13 14 15 16 17


include         restraints/constraint_angletype
fix             1 all shake 1e-6 500 0 m 1.008 a ${constraint_angletype}
fix             2 all npt temp 310 310 100.0 iso 0.9869233 0.9869233 1000 couple xy mtk no pchain 0

thermo          ${dcdfreq}
thermo_style    custom step time xlo xhi ylo yhi zlo zhi etotal temp press temp vol 
dump            1 all dcd ${dcdfreq} ${outputname}.dcd
dump_modify     1 unwrap yes
dump            2 all custom ${dcdfreq} ${outputname}.dump id type x y z vx vy vz ix iy iz
dump_modify     2 append no
write_data      ${outputname}.data
write_data      ${outputname}.pdb
dump mydump all xtc 1000 umbrella_sampling.xtc
dump mydump2 all xyz 1000 umbrella_sampling.xyz

reset_timestep  0

variable a loop 56
label loop
variable zdes equal ${a}-28
variable zave equal xcm(co2,z)
fix mytth co2 spring tether ${k}  NULL NULL ${zdes} 0 
fix com system momentum 1 linear 0 0 1 rescale
run 10000
fix myat1 all ave/time 10 10 100 v_zave file position.${zdes}.dat
run 10000
unfix myat1
next a
jump SELF loop



